npieces = 10;	
nplayers = 10;	
duration = [5, 6, 7, 7, 1, 9, 7, 8, 5, 4];
rehearsal = [[1, 0, 1, 0, 1, 1, 1, 1, 1, 1], [1, 0, 1, 0, 0, 0, 0, 0, 0, 1], [1, 0, 1, 0, 0, 1, 0, 1, 0, 1], [1, 1, 0, 1, 0, 1, 0, 1, 1, 1], [0, 0, 0, 1, 1, 1, 0, 1, 1, 1], [0, 1, 1, 0, 1, 0, 0, 1, 0, 1], [0, 1, 1, 1, 0, 0, 1, 0, 0, 1], [1, 0, 0, 1, 1, 1, 1, 0, 0, 1], [1, 1, 0, 1, 0, 0, 0, 1, 1, 1], [1, 0, 0, 0, 0, 1, 1, 1, 0, 0]];